classical_to_quantum/cases/TSPLIB/G1
NAME : example_tsp
TYPE : TSP
COMMENT : A small example TSP instance with 3 nodes using EUC_2D distances
DIMENSION : 4
EDGE_WEIGHT_TYPE : EUC_2D
NODE_COORD_SECTION
1 0 0 2
2 43 0 2
3 24 61 2
4 1 1 1
EOF

